Maximize
  0 x0 + 40 x1 + 22 x2 + 0 x3 + 0 x4 + 24 x5 - 2 x6 + 0 x7 - x8 - 42 x9
   + 23 x10 + 0 x11 + 0 x12 + 0 x13 + 4 x14 + 0 x15 + 6 x16 - 28 x17
   + 44 x18 + 37 x19 + 0 x20 + 0 x21 + 22 x22 - 39 x23 - 48 x24 + 0 x25
   - 36 x26 - 41 x27 - 17 x28 - 32 x29 + 0 x30 - 45 x31 - 42 x32 - 16 x33
   + 0 x34 + 27 x35 + 26 x36 + 0 x37 - 47 x38 + 0 x39 + 48 x40 + 0 x41
   + 0 x42 + 5 x43 + 0 x44 + 29 x45 + 0 x46 + 0 x47 + 0 x48 - 10 x49
   + 27 x50 + 0 x51 + 0 x52 + 31 x53 + 0 x54 + 0 x55 + 0 x56 - 2 x57
   + 0 x58 + 0 x59 + 0 x60 + 34 x61 + 0 x62 + 0 x63 - 20 x64 + 0 x65
   + 0 x66 + 0 x67 + 0 x68 + 0 x69 - 48 x70 + 0 x71 + 0 x72 - 15 x73
   + 0 x74 + 0 x75 + 0 x76 - 38 x77 + 0 x78 + 0 x79 + 18 x80 + 11 x81
   + 15 x82 + 18 x83 + 0 x84 + 0 x85 - x86 - 39 x87 - 6 x88 + 47 x89 + [
   - 2 x0 * x1 - 42 x0 * x3 - 14 x0 * x5 + 40 x0 * x8 + 26 x0 * x9
   + 14 x0 * x10 - 12 x0 * x11 - 80 x0 * x12 + 10 x0 * x13 - 88 x0 * x17
   + 2 x0 * x18 - 88 x0 * x20 + 66 x0 * x21 + 50 x0 * x22 - 82 x0 * x27
   + 40 x0 * x29 - 64 x0 * x32 + 40 x0 * x33 + 90 x0 * x40 + 44 x0 * x41
   + 60 x0 * x42 + 84 x0 * x45 - 26 x0 * x46 + 54 x0 * x47 + 8 x0 * x48
   + 66 x0 * x49 + 50 x0 * x51 - 26 x0 * x52 + 86 x0 * x54 + 50 x0 * x55
   + 14 x0 * x56 + 14 x0 * x59 + 24 x0 * x61 + 38 x0 * x62 - 78 x0 * x63
   - 42 x0 * x72 + 24 x0 * x73 + 76 x0 * x74 - 88 x0 * x75 - 24 x0 * x77
   - 74 x0 * x79 + 58 x0 * x80 - 62 x0 * x82 - 26 x0 * x83 - 80 x0 * x87
   + 58 x0 * x89 + 42 x1 * x4 - 24 x1 * x7 - 4 x1 * x9 - 26 x1 * x11
   + 18 x1 * x16 - 42 x1 * x17 + 98 x1 * x18 - 46 x1 * x26 - 34 x1 * x27
   + 44 x1 * x32 + 16 x1 * x37 + 56 x1 * x39 + 70 x1 * x40 - 24 x1 * x41
   - 74 x1 * x43 + 12 x1 * x44 - 46 x1 * x47 - 98 x1 * x48 + 70 x1 * x50
   + 24 x1 * x51 + 84 x1 * x52 - 8 x1 * x54 + 36 x1 * x55 - 10 x1 * x56
   + 2 x1 * x59 - 54 x1 * x60 + 78 x1 * x62 + 48 x1 * x63 + 78 x1 * x64
   - 16 x1 * x70 - 82 x1 * x71 + 86 x1 * x72 - 62 x1 * x76 - 30 x1 * x80
   + 74 x1 * x83 - 36 x1 * x84 - 54 x1 * x86 + 54 x1 * x88 + 39 x2 ^2
   - 92 x2 * x4 + 58 x2 * x5 + 72 x2 * x7 + 66 x2 * x10 + 8 x2 * x11
   - 44 x2 * x15 + 98 x2 * x21 + 44 x2 * x24 + 20 x2 * x26 - 48 x2 * x27
   + 22 x2 * x28 + 46 x2 * x29 + 26 x2 * x30 + 10 x2 * x31 - 52 x2 * x32
   + 20 x2 * x34 + 16 x2 * x36 + 32 x2 * x38 - 22 x2 * x44 - 24 x2 * x46
   - 24 x2 * x49 - 60 x2 * x51 - 60 x2 * x52 - 76 x2 * x53 - 36 x2 * x54
   - 78 x2 * x55 - 6 x2 * x57 + 32 x2 * x60 + 84 x2 * x65 - 48 x2 * x66
   + 8 x2 * x68 + 6 x2 * x69 - 34 x2 * x70 - 76 x2 * x72 + 82 x2 * x75
   + 40 x2 * x76 - 32 x2 * x78 - 2 x2 * x81 + 88 x2 * x83 + 94 x2 * x84
   + 4 x2 * x86 - 80 x2 * x87 - 42 x2 * x88 + 4 x2 * x89 - 42 x3 * x4
   - 14 x3 * x5 - 60 x3 * x6 + 94 x3 * x12 + 10 x3 * x16 + 50 x3 * x17
   + 74 x3 * x18 + 78 x3 * x20 - 40 x3 * x21 - 74 x3 * x23 - 28 x3 * x24
   + 16 x3 * x25 - 34 x3 * x26 + 22 x3 * x29 + 30 x3 * x31 - 86 x3 * x32
   - 68 x3 * x33 + 80 x3 * x35 - 64 x3 * x38 - 44 x3 * x39 - 20 x3 * x40
   + 30 x3 * x41 + 52 x3 * x42 - 28 x3 * x43 + 80 x3 * x44 + 70 x3 * x45
   - 36 x3 * x46 + 74 x3 * x47 + 76 x3 * x50 + 86 x3 * x51 + 48 x3 * x55
   + 36 x3 * x56 - 56 x3 * x57 - 64 x3 * x58 + 46 x3 * x59 - 38 x3 * x60
   + 18 x3 * x61 - 60 x3 * x64 + 22 x3 * x65 + 28 x3 * x66 + 8 x3 * x67
   - 82 x3 * x70 - 72 x3 * x72 + 68 x3 * x74 - 72 x3 * x75 - 58 x3 * x76
   + 46 x3 * x80 - 80 x3 * x81 - 88 x3 * x82 + 80 x3 * x83 - 78 x3 * x84
   - 48 x3 * x88 - 90 x3 * x89 + 32 x4 ^2 - 14 x4 * x6 - 60 x4 * x7
   + 32 x4 * x11 + 14 x4 * x12 + 64 x4 * x14 + 54 x4 * x15 + 12 x4 * x16
   - 44 x4 * x17 - 98 x4 * x19 + 70 x4 * x20 + 84 x4 * x21 - 46 x4 * x22
   + 82 x4 * x26 - 52 x4 * x31 + 66 x4 * x34 - 8 x4 * x35 - 88 x4 * x38
   + 48 x4 * x40 - 84 x4 * x43 - 74 x4 * x45 - 36 x4 * x46 - 2 x4 * x47
   + 62 x4 * x48 + 96 x4 * x50 + 62 x4 * x51 + 22 x4 * x53 - 68 x4 * x57
   - 8 x4 * x58 - 26 x4 * x62 + 16 x4 * x64 - 78 x4 * x67 - 76 x4 * x68
   - 94 x4 * x69 - 46 x4 * x70 - 90 x4 * x71 - 28 x4 * x74 - 60 x4 * x78
   - 76 x4 * x79 - 68 x4 * x82 + 14 x4 * x84 + 32 x4 * x88 - 24 x4 * x89
   - 74 x5 * x15 + 72 x5 * x21 + 58 x5 * x24 + 88 x5 * x27 - 32 x5 * x30
   + 32 x5 * x31 + 4 x5 * x33 - 56 x5 * x34 - 76 x5 * x35 - 52 x5 * x36
   - 70 x5 * x37 + 84 x5 * x38 + 88 x5 * x41 - 70 x5 * x44 + 88 x5 * x46
   + 22 x5 * x48 - 8 x5 * x49 + 34 x5 * x50 + 86 x5 * x51 + 14 x5 * x55
   - 6 x5 * x56 - 72 x5 * x57 - 54 x5 * x58 - 10 x5 * x66 - 44 x5 * x67
   - 52 x5 * x69 - 38 x5 * x71 + 60 x5 * x73 - 36 x5 * x74 + 92 x5 * x75
   + 38 x5 * x76 - 94 x5 * x78 + 8 x5 * x79 - 74 x5 * x82 + 34 x5 * x84
   - 88 x5 * x85 + 66 x5 * x87 - 42 x6 ^2 - 24 x6 * x7 - 86 x6 * x8
   - 28 x6 * x10 + 86 x6 * x11 + 84 x6 * x12 - 18 x6 * x15 + 62 x6 * x17
   + 52 x6 * x18 - 40 x6 * x19 + 66 x6 * x21 - 86 x6 * x22 - 92 x6 * x27
   - 98 x6 * x28 + 36 x6 * x30 - 92 x6 * x34 + 16 x6 * x35 + 28 x6 * x36
   + 68 x6 * x39 + 10 x6 * x41 - 6 x6 * x42 + 6 x6 * x44 + 42 x6 * x45
   - 66 x6 * x46 + 60 x6 * x47 + 80 x6 * x48 - 8 x6 * x49 + 74 x6 * x50
   - 14 x6 * x51 - 96 x6 * x56 + 76 x6 * x59 - 22 x6 * x61 - 86 x6 * x62
   + 50 x6 * x65 - 52 x6 * x67 + 4 x6 * x69 + 30 x6 * x71 - 32 x6 * x75
   + 38 x6 * x76 - 40 x6 * x77 + 68 x6 * x78 + 20 x6 * x83 - 58 x6 * x85
   - 36 x6 * x88 - 3 x7 ^2 - 78 x7 * x8 - 26 x7 * x10 - 12 x7 * x11
   - 66 x7 * x12 + 96 x7 * x13 - 84 x7 * x14 - 64 x7 * x17 - 94 x7 * x23
   - 36 x7 * x25 + 24 x7 * x26 + 66 x7 * x33 - 12 x7 * x35 + 66 x7 * x37
   - 14 x7 * x39 + 28 x7 * x42 + 42 x7 * x43 + 44 x7 * x45 - 84 x7 * x48
   + 32 x7 * x49 - 62 x7 * x52 - 10 x7 * x54 + 72 x7 * x55 - 96 x7 * x57
   - 86 x7 * x64 + 70 x7 * x65 + 22 x7 * x68 - 88 x7 * x69 + 30 x7 * x70
   - 66 x7 * x72 + 88 x7 * x73 + 38 x7 * x76 + 26 x7 * x78 + 72 x7 * x80
   - 78 x7 * x81 + 32 x7 * x82 + 18 x7 * x83 + 34 x7 * x85 + 14 x7 * x86
   + 96 x7 * x87 + 14 x7 * x89 + 30 x8 * x10 + 6 x8 * x11 + 38 x8 * x16
   - 58 x8 * x17 + 10 x8 * x19 + 4 x8 * x22 - 14 x8 * x31 + 68 x8 * x32
   + 68 x8 * x35 - 24 x8 * x39 - 32 x8 * x40 + 40 x8 * x41 - 68 x8 * x42
   + 96 x8 * x44 - 78 x8 * x45 - 22 x8 * x46 - 52 x8 * x47 + 56 x8 * x49
   + 52 x8 * x50 + 58 x8 * x51 - 60 x8 * x54 + 28 x8 * x55 - 60 x8 * x56
   - 10 x8 * x58 + 98 x8 * x61 + 4 x8 * x64 + 60 x8 * x65 + 20 x8 * x67
   + 12 x8 * x71 + 70 x8 * x72 + 60 x8 * x73 - 92 x8 * x74 + 36 x8 * x75
   + 88 x8 * x78 + 64 x8 * x79 + 80 x8 * x81 + 32 x8 * x84 + 32 x8 * x86
   + 42 x8 * x87 + 38 x9 * x11 - 68 x9 * x14 - 30 x9 * x20 - 12 x9 * x21
   - 6 x9 * x22 + 8 x9 * x24 + 88 x9 * x26 + 40 x9 * x30 + 86 x9 * x33
   - 84 x9 * x35 + 94 x9 * x36 + 34 x9 * x37 - 76 x9 * x38 - 84 x9 * x39
   - 20 x9 * x43 - 78 x9 * x44 - 2 x9 * x48 - 16 x9 * x49 - 64 x9 * x50
   + 34 x9 * x52 - 14 x9 * x53 + 58 x9 * x55 - 78 x9 * x56 + 60 x9 * x57
   - 90 x9 * x59 + 6 x9 * x62 - 74 x9 * x63 + 4 x9 * x64 + 6 x9 * x65
   + 60 x9 * x67 + 22 x9 * x68 - 4 x9 * x69 - 66 x9 * x70 - 44 x9 * x71
   + 32 x9 * x72 - 82 x9 * x77 + 28 x9 * x80 - 88 x9 * x83 - 74 x9 * x86
   + 44 x10 ^2 + 72 x10 * x12 + 50 x10 * x13 - 8 x10 * x16 - 40 x10 * x17
   + 90 x10 * x18 - 70 x10 * x20 + 56 x10 * x22 + 94 x10 * x23
   - 68 x10 * x25 - 20 x10 * x26 + 10 x10 * x27 + 22 x10 * x30
   + 76 x10 * x31 + 94 x10 * x34 + 98 x10 * x36 + 76 x10 * x40
   + 72 x10 * x43 - 72 x10 * x47 - 98 x10 * x49 + 8 x10 * x51
   - 34 x10 * x53 - 62 x10 * x56 - 42 x10 * x59 - 2 x10 * x63
   - 88 x10 * x65 + 86 x10 * x66 + 88 x10 * x67 + 82 x10 * x68
   - 34 x10 * x70 + 34 x10 * x72 - 98 x10 * x76 + 74 x10 * x77
   + 76 x10 * x78 - 30 x10 * x79 + 20 x10 * x82 - 4 x10 * x83
   + 66 x10 * x84 + 42 x10 * x85 + 2 x10 * x89 - 76 x11 * x16
   - 10 x11 * x17 + 30 x11 * x18 - 38 x11 * x19 - 8 x11 * x20
   - 74 x11 * x23 + 74 x11 * x24 + 40 x11 * x26 - 32 x11 * x27
   - 40 x11 * x28 - 54 x11 * x29 - 56 x11 * x31 + 96 x11 * x32
   + 2 x11 * x35 + 54 x11 * x41 - 98 x11 * x43 + 34 x11 * x45
   + 90 x11 * x46 - 44 x11 * x47 + 38 x11 * x50 - 16 x11 * x52
   + 90 x11 * x57 + 52 x11 * x58 + 82 x11 * x62 + 76 x11 * x63
   - 34 x11 * x66 + 14 x11 * x68 + 40 x11 * x74 - 44 x11 * x75
   + 2 x11 * x76 + 82 x11 * x78 + 2 x11 * x83 + 6 x11 * x84 + 62 x11 * x86
   - 8 x11 * x87 + 32 x11 * x88 - 46 x11 * x89 - 34 x12 * x15
   + 38 x12 * x16 - 18 x12 * x17 + 20 x12 * x18 - 4 x12 * x20
   - 26 x12 * x22 - 68 x12 * x23 + 58 x12 * x25 + 4 x12 * x28
   - 78 x12 * x29 - 66 x12 * x32 - 38 x12 * x34 + 70 x12 * x37
   - 76 x12 * x38 - 68 x12 * x39 - 28 x12 * x40 + 36 x12 * x42
   + 58 x12 * x45 - 72 x12 * x47 - 12 x12 * x50 + 20 x12 * x51
   + 58 x12 * x52 - 64 x12 * x53 - 24 x12 * x54 + 58 x12 * x55
   + 22 x12 * x57 + 86 x12 * x58 + 80 x12 * x59 - 68 x12 * x60
   + 80 x12 * x61 + 74 x12 * x64 - 32 x12 * x66 + 56 x12 * x67
   - 66 x12 * x70 - 46 x12 * x71 + 6 x12 * x73 - 20 x12 * x74
   - 48 x12 * x77 - 28 x12 * x78 - 90 x12 * x83 + 92 x12 * x86
   - 62 x12 * x87 + 18 x12 * x88 - 58 x12 * x89 - 70 x13 * x16
   - 72 x13 * x17 - 46 x13 * x19 + 32 x13 * x21 - 58 x13 * x22
   + 56 x13 * x23 - 80 x13 * x25 + 64 x13 * x26 + 76 x13 * x27
   - 4 x13 * x29 - 78 x13 * x34 - 42 x13 * x35 - 96 x13 * x38
   + 54 x13 * x39 + 44 x13 * x41 + 98 x13 * x43 - 2 x13 * x44
   - 46 x13 * x46 - 16 x13 * x48 - 36 x13 * x51 + 46 x13 * x52
   - 28 x13 * x54 - 4 x13 * x55 - 68 x13 * x56 + 98 x13 * x58
   + 10 x13 * x62 + 70 x13 * x72 - 62 x13 * x73 - 62 x13 * x77
   + 16 x13 * x78 - 74 x13 * x83 + 80 x13 * x84 + 62 x13 * x89 + 44 x14 ^2
   + 46 x14 * x16 - 50 x14 * x20 - 92 x14 * x24 - 18 x14 * x31
   - 54 x14 * x34 - 16 x14 * x37 + 48 x14 * x40 - 50 x14 * x41
   + 36 x14 * x42 + 46 x14 * x46 - 36 x14 * x49 + 78 x14 * x50
   - 48 x14 * x51 - 82 x14 * x55 - 24 x14 * x58 - 60 x14 * x59
   - 66 x14 * x60 - 12 x14 * x61 - 94 x14 * x71 - 40 x14 * x74
   - 64 x14 * x75 + 84 x14 * x78 + 14 x14 * x82 - 18 x14 * x83
   + 60 x14 * x87 - 8 x14 * x89 + 38 x15 * x17 + 30 x15 * x19
   + 64 x15 * x21 - 24 x15 * x23 + 84 x15 * x24 + 32 x15 * x27
   + 66 x15 * x29 + 20 x15 * x30 + 20 x15 * x31 - 10 x15 * x33
   - 28 x15 * x35 + 92 x15 * x38 + 78 x15 * x40 + 12 x15 * x41
   - 22 x15 * x43 - 98 x15 * x44 + 26 x15 * x45 + 80 x15 * x46
   - 62 x15 * x47 + 98 x15 * x52 + 20 x15 * x53 - 88 x15 * x55
   - 20 x15 * x60 + 54 x15 * x62 + 34 x15 * x63 + 60 x15 * x65
   + 44 x15 * x69 + 54 x15 * x71 - 48 x15 * x72 + 50 x15 * x73
   + 40 x15 * x74 - 38 x15 * x75 + 72 x15 * x76 + 92 x15 * x87
   + 52 x15 * x88 - 24 x16 * x17 + 94 x16 * x19 + 8 x16 * x23
   + 38 x16 * x26 - 86 x16 * x27 + 46 x16 * x28 + 48 x16 * x35
   - 2 x16 * x36 + 96 x16 * x37 + 30 x16 * x39 + 36 x16 * x42
   + 34 x16 * x49 + 62 x16 * x52 + 72 x16 * x53 + 96 x16 * x55
   - 52 x16 * x57 + 82 x16 * x63 + 12 x16 * x65 + 50 x16 * x66
   + 50 x16 * x67 + 80 x16 * x74 - 20 x16 * x75 + 30 x16 * x77
   - 56 x16 * x79 - 44 x16 * x82 + 60 x16 * x83 - 12 x17 * x20
   + 38 x17 * x21 + 42 x17 * x22 - 80 x17 * x24 - 66 x17 * x28
   + 30 x17 * x29 + 80 x17 * x30 + 6 x17 * x32 - 22 x17 * x34
   + 10 x17 * x38 + 76 x17 * x39 - 32 x17 * x44 + 56 x17 * x45
   - 14 x17 * x49 - 46 x17 * x50 + 68 x17 * x51 - 58 x17 * x52
   - 70 x17 * x53 - 22 x17 * x59 - 58 x17 * x60 + 52 x17 * x62
   + 22 x17 * x63 - 78 x17 * x68 - 28 x17 * x69 + 30 x17 * x71
   - 96 x17 * x73 + 36 x17 * x74 - 30 x17 * x75 - 90 x17 * x77
   - 18 x17 * x78 + 16 x17 * x79 - 24 x17 * x82 + 28 x17 * x84
   - 26 x17 * x85 + 26 x17 * x86 - 24 x18 * x20 - 86 x18 * x23
   - 2 x18 * x24 - 28 x18 * x25 + 60 x18 * x27 + 42 x18 * x28
   - 18 x18 * x29 - 72 x18 * x31 + 94 x18 * x33 + 38 x18 * x35
   - 28 x18 * x36 + 86 x18 * x38 - 14 x18 * x41 - 90 x18 * x42
   - 98 x18 * x43 - 32 x18 * x44 - 32 x18 * x45 + 12 x18 * x47
   - 14 x18 * x49 + 90 x18 * x50 + 92 x18 * x52 - 70 x18 * x55
   + 96 x18 * x58 - 10 x18 * x61 - 68 x18 * x62 - 20 x18 * x66
   - 14 x18 * x67 - 88 x18 * x71 - 58 x18 * x72 - 62 x18 * x74
   - 68 x18 * x75 - 82 x18 * x76 + 52 x18 * x77 - 52 x18 * x78
   + 2 x18 * x80 + 86 x18 * x84 + 62 x18 * x86 - 96 x18 * x88
   + 34 x19 * x20 + 92 x19 * x25 + 36 x19 * x26 - 16 x19 * x30
   + 94 x19 * x32 - 40 x19 * x33 + 36 x19 * x34 - 14 x19 * x35
   + 76 x19 * x38 - 64 x19 * x42 - 88 x19 * x45 + 18 x19 * x49
   + 28 x19 * x50 + 68 x19 * x52 + 44 x19 * x53 + 76 x19 * x54
   - 42 x19 * x55 - 36 x19 * x57 + 72 x19 * x58 + 72 x19 * x59
   - 40 x19 * x61 - 14 x19 * x65 - 98 x19 * x68 - 78 x19 * x69
   + 50 x19 * x71 - 86 x19 * x72 - 4 x19 * x75 + 44 x19 * x77
   + 20 x19 * x78 - 24 x19 * x80 - 14 x19 * x82 - 46 x19 * x83
   - 28 x19 * x86 + 14 x19 * x88 - 17 x20 ^2 - 24 x20 * x21 - 42 x20 * x23
   - 26 x20 * x27 + 76 x20 * x28 + 18 x20 * x31 + 68 x20 * x32
   + 4 x20 * x36 - 78 x20 * x38 + 8 x20 * x42 - 64 x20 * x48 + 66 x20 * x50
   - 76 x20 * x53 + 16 x20 * x54 + 2 x20 * x56 - 78 x20 * x62
   + 64 x20 * x65 - 12 x20 * x66 + 84 x20 * x69 + 46 x20 * x72
   + 58 x20 * x78 - 92 x20 * x80 - 86 x20 * x84 + 28 x20 * x86
   + 28 x20 * x87 - 68 x21 * x24 - 22 x21 * x26 - 90 x21 * x28
   - 72 x21 * x29 + 20 x21 * x31 + 96 x21 * x33 + 56 x21 * x34
   + 20 x21 * x37 - 30 x21 * x39 + 20 x21 * x40 + 14 x21 * x41
   + 68 x21 * x44 - 42 x21 * x45 - 70 x21 * x47 + 50 x21 * x48
   - 44 x21 * x50 - 36 x21 * x51 + 70 x21 * x52 - 8 x21 * x56 + 6 x21 * x59
   + 16 x21 * x61 - 86 x21 * x62 - 36 x21 * x63 - 40 x21 * x65
   + 80 x21 * x66 + 44 x21 * x70 - 52 x21 * x71 - 54 x21 * x72
   + 50 x21 * x73 + 66 x21 * x74 + 56 x21 * x75 - 92 x21 * x76
   - 12 x21 * x77 + 78 x21 * x79 - 28 x21 * x80 - 76 x21 * x81
   + 50 x21 * x83 + 4 x21 * x85 - 8 x21 * x87 + 60 x22 * x23 - 72 x22 * x24
   - 78 x22 * x26 + 6 x22 * x27 + 94 x22 * x29 + 46 x22 * x30
   + 94 x22 * x31 - 32 x22 * x35 - 76 x22 * x36 + 74 x22 * x41
   - 26 x22 * x42 + 26 x22 * x43 + 26 x22 * x44 - 82 x22 * x47
   + 84 x22 * x50 - 20 x22 * x52 + 14 x22 * x54 + 94 x22 * x55
   + 70 x22 * x57 + 2 x22 * x58 - 28 x22 * x59 + 8 x22 * x60 - 82 x22 * x61
   - 38 x22 * x63 - 56 x22 * x64 + 44 x22 * x68 + 62 x22 * x73
   - 62 x22 * x75 + 22 x22 * x76 - 20 x22 * x82 + 82 x22 * x83
   + 60 x22 * x84 + 8 x22 * x85 + 2 x22 * x86 + 20 x22 * x88 - 76 x23 * x27
   + 78 x23 * x28 - 50 x23 * x31 + 64 x23 * x32 - 60 x23 * x35
   - 68 x23 * x36 - 48 x23 * x37 + 98 x23 * x38 + 42 x23 * x42
   + 20 x23 * x43 + 46 x23 * x45 + 56 x23 * x46 + 24 x23 * x49
   + 88 x23 * x50 - 94 x23 * x52 - 50 x23 * x60 + 56 x23 * x61
   + 4 x23 * x68 - 64 x23 * x70 + 72 x23 * x72 - 10 x23 * x75
   - 40 x23 * x76 + 96 x23 * x77 + 36 x23 * x79 - 22 x23 * x82
   - 46 x23 * x86 + 98 x23 * x87 + 48 x23 * x88 - 21 x24 ^2 + 84 x24 * x25
   - 84 x24 * x26 + 2 x24 * x30 - 30 x24 * x31 + 88 x24 * x34
   - 32 x24 * x38 + 6 x24 * x39 - 26 x24 * x40 + 90 x24 * x42
   - 90 x24 * x43 - 74 x24 * x44 + 24 x24 * x46 - 84 x24 * x47
   + 96 x24 * x48 + 62 x24 * x50 + 58 x24 * x55 - 58 x24 * x58
   + 46 x24 * x59 - 40 x24 * x60 + 64 x24 * x61 - 48 x24 * x62
   + 46 x24 * x68 - 78 x24 * x69 - 36 x24 * x70 - 14 x24 * x74
   + 30 x24 * x75 + 56 x24 * x77 + 40 x24 * x78 - 78 x24 * x79
   + 56 x24 * x83 - 60 x24 * x85 + 32 x24 * x89 - 4 x25 * x31
   + 94 x25 * x33 + 6 x25 * x34 + 2 x25 * x38 - 50 x25 * x40 - 4 x25 * x43
   - 8 x25 * x44 + 42 x25 * x46 - 72 x25 * x48 - 86 x25 * x50
   + 96 x25 * x51 - 82 x25 * x52 + 88 x25 * x53 + 52 x25 * x55
   + 56 x25 * x56 - 46 x25 * x60 - 86 x25 * x63 + 52 x25 * x64
   + 18 x25 * x73 + 96 x25 * x78 + 50 x25 * x80 + 62 x25 * x81
   - 52 x25 * x82 - 14 x25 * x84 + 18 x25 * x87 + 50 x25 * x88
   + 92 x25 * x89 + 18 x26 ^2 + 38 x26 * x27 - 62 x26 * x28 - 58 x26 * x29
   - 76 x26 * x30 + 78 x26 * x31 + 24 x26 * x32 + 42 x26 * x33
   - 58 x26 * x34 - 86 x26 * x36 - 26 x26 * x37 + 40 x26 * x42
   - 52 x26 * x43 + 26 x26 * x45 - 50 x26 * x46 - 22 x26 * x48
   + 84 x26 * x49 + 32 x26 * x51 - 28 x26 * x55 - 60 x26 * x56
   + 56 x26 * x57 + 70 x26 * x60 - 20 x26 * x61 + 16 x26 * x62
   - 74 x26 * x66 - 74 x26 * x67 - 74 x26 * x68 - 16 x26 * x71
   + 2 x26 * x74 + 74 x26 * x75 - 48 x26 * x80 + 30 x26 * x81
   - 96 x26 * x82 + 82 x26 * x87 + 96 x26 * x89 + 49 x27 ^2 - 6 x27 * x28
   - 26 x27 * x29 - 20 x27 * x31 + 18 x27 * x33 - 18 x27 * x34
   + 56 x27 * x39 - 80 x27 * x42 - 40 x27 * x45 + 70 x27 * x46
   - 36 x27 * x47 + 36 x27 * x49 - 14 x27 * x50 + 88 x27 * x52
   + 66 x27 * x56 + 46 x27 * x57 + 52 x27 * x58 - 86 x27 * x61
   + 56 x27 * x65 - 44 x27 * x67 - 36 x27 * x73 - 18 x27 * x76
   - 74 x27 * x78 + 90 x27 * x83 + 20 x27 * x85 + 48 x27 * x86 - 47 x28 ^2
   - 30 x28 * x33 + 54 x28 * x34 + 26 x28 * x36 - 40 x28 * x38
   - 10 x28 * x41 - 64 x28 * x42 - 4 x28 * x44 - 78 x28 * x46
   - 24 x28 * x50 + 52 x28 * x51 - 74 x28 * x52 + 16 x28 * x53
   - 30 x28 * x54 + 98 x28 * x55 - 88 x28 * x57 - 86 x28 * x58
   + 2 x28 * x59 - 92 x28 * x63 + 56 x28 * x65 + 78 x28 * x66
   + 36 x28 * x68 + 74 x28 * x70 - 82 x28 * x71 + 56 x28 * x73
   - 86 x28 * x74 + 16 x28 * x75 + 8 x28 * x76 + 66 x28 * x81
   - 46 x28 * x84 - 78 x28 * x89 - 19 x29 ^2 - 12 x29 * x31 - 24 x29 * x33
   - 86 x29 * x34 + 38 x29 * x37 + 26 x29 * x38 - 32 x29 * x42
   + 14 x29 * x43 - 46 x29 * x45 - 14 x29 * x49 + 22 x29 * x51
   + 72 x29 * x52 + 70 x29 * x58 - 6 x29 * x59 - 6 x29 * x61 - 64 x29 * x64
   - 34 x29 * x66 - 28 x29 * x69 + 58 x29 * x70 + 62 x29 * x72
   + 46 x29 * x74 + 4 x29 * x75 - 14 x29 * x76 + 74 x29 * x78
   - 92 x29 * x82 + 90 x29 * x83 + 66 x29 * x84 + 16 x29 * x86
   - 44 x29 * x89 - 5 x30 ^2 - 60 x30 * x31 - 16 x30 * x37 + 10 x30 * x38
   + 78 x30 * x39 - 54 x30 * x40 - 70 x30 * x41 - 36 x30 * x42
   - 58 x30 * x44 + 84 x30 * x45 + 90 x30 * x46 - 10 x30 * x47
   + 26 x30 * x48 + 42 x30 * x51 + 78 x30 * x53 - 48 x30 * x54
   - 76 x30 * x56 + 88 x30 * x59 - 18 x30 * x61 + 58 x30 * x65
   - 74 x30 * x67 + 64 x30 * x69 - 52 x30 * x71 - 42 x30 * x72
   + 36 x30 * x75 + 74 x30 * x77 - 26 x30 * x78 + 60 x30 * x79
   + 98 x30 * x86 + 22 x30 * x88 - 66 x30 * x89 - 3 x31 ^2 + 34 x31 * x34
   - 40 x31 * x36 - 46 x31 * x42 + 98 x31 * x43 + 66 x31 * x45
   + 90 x31 * x46 + 58 x31 * x48 + 26 x31 * x50 + 36 x31 * x52
   - 50 x31 * x53 - 96 x31 * x55 + 26 x31 * x57 + 84 x31 * x58
   + 18 x31 * x62 - 76 x31 * x63 - 78 x31 * x64 + 10 x31 * x67
   - 64 x31 * x68 - 82 x31 * x73 - 52 x31 * x75 - 42 x31 * x79
   + 24 x31 * x80 - 2 x31 * x81 + 94 x31 * x82 + 10 x31 * x84
   - 92 x31 * x87 + 74 x31 * x88 - 90 x31 * x89 - 2 x32 ^2 + 88 x32 * x35
   - 66 x32 * x38 - 62 x32 * x40 - 72 x32 * x41 - 84 x32 * x44
   - 66 x32 * x46 + 40 x32 * x47 + 78 x32 * x51 + 48 x32 * x52
   - 78 x32 * x55 - 78 x32 * x58 - 70 x32 * x59 + 12 x32 * x61
   - 30 x32 * x64 + 64 x32 * x66 - 78 x32 * x67 - 78 x32 * x68
   - 16 x32 * x69 - 22 x32 * x70 - 2 x32 * x71 + 46 x32 * x75 + 4 x32 * x79
   - 36 x32 * x80 - 42 x32 * x83 + 60 x32 * x84 + 86 x32 * x85
   + 30 x33 * x34 + 26 x33 * x38 - 60 x33 * x40 + 4 x33 * x41
   + 50 x33 * x42 + 28 x33 * x43 - 12 x33 * x44 + 70 x33 * x49
   + 40 x33 * x50 + 94 x33 * x51 - 70 x33 * x52 - 34 x33 * x53
   + 20 x33 * x60 + 62 x33 * x64 + 12 x33 * x66 + 42 x33 * x71
   - 28 x33 * x72 + 86 x33 * x75 - 20 x33 * x77 + 88 x33 * x79
   + 30 x33 * x80 - 48 x33 * x82 + 70 x33 * x83 + 12 x33 * x84
   - 46 x33 * x87 + 28 x33 * x89 - 26 x34 ^2 - 32 x34 * x37 + 60 x34 * x38
   + 82 x34 * x40 + 86 x34 * x41 - 26 x34 * x43 + 76 x34 * x44
   - 18 x34 * x48 + 74 x34 * x49 + 76 x34 * x52 + 16 x34 * x54
   + 98 x34 * x55 + 88 x34 * x56 + 30 x34 * x57 - 62 x34 * x58
   + 98 x34 * x62 + 20 x34 * x63 + 80 x34 * x66 + 56 x34 * x69
   + 24 x34 * x72 - 46 x34 * x74 + 98 x34 * x77 - 38 x34 * x78
   + 82 x34 * x82 - 92 x34 * x84 + 58 x34 * x86 + 16 x34 * x89 + 6 x35 ^2
   - 16 x35 * x38 - 90 x35 * x40 + 16 x35 * x41 - 4 x35 * x42
   - 90 x35 * x43 + 22 x35 * x44 + 16 x35 * x47 + 72 x35 * x48
   + 80 x35 * x49 - 60 x35 * x51 - 16 x35 * x57 - 10 x35 * x58
   - 2 x35 * x59 + 2 x35 * x61 - 54 x35 * x63 - 10 x35 * x64 + 64 x35 * x66
   + 86 x35 * x70 + 16 x35 * x71 - 52 x35 * x72 - 10 x35 * x74
   - 6 x35 * x75 + 66 x35 * x77 + 86 x35 * x84 + 12 x35 * x89
   + 52 x36 * x39 - 88 x36 * x41 - 82 x36 * x42 - 92 x36 * x46
   - 12 x36 * x47 - 26 x36 * x51 - 34 x36 * x53 - 44 x36 * x55
   + 88 x36 * x56 - 64 x36 * x58 + 70 x36 * x59 + 40 x36 * x60
   - 78 x36 * x62 + 78 x36 * x64 - 92 x36 * x65 - 48 x36 * x67
   + 18 x36 * x69 + 48 x36 * x70 - 6 x36 * x73 - 30 x36 * x75
   + 16 x36 * x77 - 52 x36 * x78 + 14 x36 * x79 + 18 x36 * x80
   + 4 x37 * x39 - 44 x37 * x40 - 98 x37 * x43 + 78 x37 * x47
   - 82 x37 * x48 - 88 x37 * x49 + 82 x37 * x50 - 52 x37 * x55
   + 46 x37 * x57 + 12 x37 * x58 - 28 x37 * x59 - 68 x37 * x60
   + 26 x37 * x61 - 68 x37 * x64 - 86 x37 * x70 + 88 x37 * x71
   + 46 x37 * x75 + 4 x37 * x77 + 30 x37 * x78 - 62 x37 * x79
   + 62 x37 * x80 + 86 x37 * x84 - 76 x37 * x85 - 62 x37 * x88
   - 6 x37 * x89 + 90 x38 * x41 + 64 x38 * x43 - 32 x38 * x44
   + 86 x38 * x45 + 98 x38 * x46 - 48 x38 * x50 - 46 x38 * x52
   - 4 x38 * x53 - 48 x38 * x55 + 34 x38 * x56 + 82 x38 * x57
   - 16 x38 * x59 - 12 x38 * x60 - 60 x38 * x62 - 12 x38 * x63
   + 54 x38 * x67 + 72 x38 * x70 + 10 x38 * x71 + 92 x38 * x72
   + 90 x38 * x73 - 94 x38 * x74 + 94 x38 * x77 + 76 x38 * x79
   + 38 x38 * x80 + 12 x38 * x82 + 60 x38 * x83 - 8 x38 * x84
   + 56 x38 * x86 - 54 x38 * x87 + 50 x38 * x88 + 18 x38 * x89
   - 24 x39 * x43 + 64 x39 * x47 + 26 x39 * x50 - 64 x39 * x53
   + 56 x39 * x54 - 66 x39 * x55 + 20 x39 * x56 + 24 x39 * x59
   - 64 x39 * x62 + 14 x39 * x63 - 38 x39 * x66 + 12 x39 * x68
   - 66 x39 * x70 + 56 x39 * x73 + 80 x39 * x74 - 52 x39 * x75
   - 82 x39 * x76 - 32 x39 * x77 - 14 x39 * x78 - 64 x39 * x81
   - 64 x39 * x82 + 2 x39 * x85 + 13 x40 ^2 + 64 x40 * x42 - 20 x40 * x44
   + 34 x40 * x45 + 56 x40 * x46 + 26 x40 * x49 - 62 x40 * x50
   + 90 x40 * x51 + 6 x40 * x52 + 76 x40 * x55 + 64 x40 * x56
   - 84 x40 * x57 - 22 x40 * x58 + 82 x40 * x59 - 96 x40 * x60
   + 80 x40 * x63 + 80 x40 * x67 - 18 x40 * x69 + 66 x40 * x70
   + 16 x40 * x75 + 82 x40 * x81 - 38 x40 * x84 + 20 x41 ^2 - 32 x41 * x46
   + 92 x41 * x48 - 96 x41 * x49 - 80 x41 * x52 - 50 x41 * x56
   - 58 x41 * x62 - 88 x41 * x64 - 22 x41 * x66 + 2 x41 * x67
   - 42 x41 * x70 + 24 x41 * x73 - 86 x41 * x74 + 96 x41 * x75
   - 18 x41 * x76 + 50 x41 * x77 + 76 x41 * x78 - 76 x41 * x81
   + 42 x41 * x82 - 16 x41 * x83 + 86 x41 * x85 - 44 x41 * x86
   - 88 x41 * x88 - 42 x42 * x44 + 82 x42 * x46 + 84 x42 * x47
   - 98 x42 * x51 + 18 x42 * x52 + 10 x42 * x54 - 38 x42 * x55
   - 98 x42 * x58 + 4 x42 * x59 - 10 x42 * x60 - 86 x42 * x61
   - 76 x42 * x63 + 46 x42 * x67 + 68 x42 * x70 + 70 x42 * x72
   + 82 x42 * x77 + 24 x42 * x80 + 18 x42 * x88 - 14 x43 ^2 - 80 x43 * x45
   - 4 x43 * x47 - 18 x43 * x49 - 82 x43 * x52 + 92 x43 * x53 - 4 x43 * x54
   + 42 x43 * x57 + 34 x43 * x59 + 72 x43 * x61 + 68 x43 * x63
   - 86 x43 * x64 + 30 x43 * x67 + 24 x43 * x68 + 32 x43 * x69
   - 86 x43 * x70 - 56 x43 * x76 - 86 x43 * x77 - 58 x43 * x78
   - 42 x43 * x80 + 78 x43 * x85 + 14 x43 * x86 + 6 x43 * x87
   - 56 x43 * x89 - 43 x44 ^2 - 88 x44 * x45 + 72 x44 * x46 - 46 x44 * x47
   + 68 x44 * x48 + 70 x44 * x54 + 46 x44 * x55 + 28 x44 * x56
   + 86 x44 * x61 + 42 x44 * x63 + 38 x44 * x65 + 94 x44 * x66
   + 46 x44 * x67 - 92 x44 * x69 - 40 x44 * x70 + 72 x44 * x71
   - 74 x44 * x72 - 98 x44 * x73 + 38 x44 * x74 + 58 x44 * x77
   + 24 x44 * x78 + 40 x44 * x80 + 20 x44 * x81 - 78 x44 * x82
   - 72 x44 * x84 - 64 x44 * x86 + 12 x44 * x87 + 2 x44 * x88
   + 56 x44 * x89 + 74 x45 * x46 - 86 x45 * x48 + 10 x45 * x49
   + 18 x45 * x52 + 24 x45 * x53 - 54 x45 * x59 + 72 x45 * x61
   + 48 x45 * x63 + 40 x45 * x64 - 90 x45 * x68 - 12 x45 * x69
   + 72 x45 * x71 - 88 x45 * x73 - 58 x45 * x75 - 2 x45 * x78
   - 12 x45 * x81 + 64 x45 * x82 + 54 x45 * x83 - 46 x45 * x85
   - 10 x45 * x89 + 86 x46 * x51 + 84 x46 * x56 - 52 x46 * x57
   - 10 x46 * x58 + 78 x46 * x59 - 90 x46 * x60 - 36 x46 * x61
   + 28 x46 * x62 + 58 x46 * x64 - 24 x46 * x66 + 12 x46 * x67
   + 78 x46 * x70 - 26 x46 * x75 + 58 x46 * x76 + 50 x46 * x78
   + 4 x46 * x79 - 94 x46 * x82 + 34 x46 * x83 + 62 x46 * x84
   + 40 x46 * x85 - 76 x46 * x87 + 6 x46 * x88 - 64 x46 * x89 - 33 x47 ^2
   + 38 x47 * x48 + 50 x47 * x51 + 72 x47 * x52 + 52 x47 * x60
   + 60 x47 * x62 + 18 x47 * x65 - 38 x47 * x66 + 86 x47 * x67
   + 38 x47 * x68 - 94 x47 * x70 - 98 x47 * x72 + 94 x47 * x78
   + 32 x47 * x79 - 94 x47 * x83 + 80 x47 * x84 + 18 x47 * x87
   + 38 x48 * x53 + 70 x48 * x58 - 48 x48 * x60 + 10 x48 * x61
   + 86 x48 * x62 + 48 x48 * x63 + 6 x48 * x64 + 90 x48 * x69
   - 22 x48 * x72 - 96 x48 * x73 + 82 x48 * x81 + 30 x48 * x82
   + 42 x48 * x83 + 70 x48 * x84 - 92 x48 * x86 - 90 x48 * x87
   + 64 x48 * x89 + 76 x49 * x55 - 44 x49 * x57 + 88 x49 * x60
   - 94 x49 * x61 - 92 x49 * x62 - 66 x49 * x65 - 84 x49 * x66
   + 32 x49 * x67 + 76 x49 * x73 - 78 x49 * x74 - 32 x49 * x76
   - 48 x49 * x77 - 40 x49 * x78 - 28 x49 * x87 + 26 x49 * x88
   + 4 x50 * x53 + 22 x50 * x56 + 46 x50 * x57 + 48 x50 * x61
   - 70 x50 * x62 + 20 x50 * x63 + 8 x50 * x64 + 78 x50 * x65
   - 80 x50 * x66 - 20 x50 * x67 + 98 x50 * x70 - 4 x50 * x71
   + 64 x50 * x74 - 34 x50 * x75 + 58 x50 * x76 + 48 x50 * x78
   - 22 x50 * x79 - 96 x50 * x81 - 54 x50 * x82 - 72 x50 * x85
   + 58 x50 * x88 + 45 x51 ^2 - 8 x51 * x54 - 72 x51 * x56 + 6 x51 * x57
   - 24 x51 * x60 - 66 x51 * x65 + 32 x51 * x66 - 24 x51 * x69
   - 76 x51 * x71 - 44 x51 * x72 + 8 x51 * x73 + 2 x51 * x74 - 66 x51 * x75
   + 4 x51 * x76 - 36 x51 * x77 + 44 x51 * x79 + 28 x51 * x82 - 2 x51 * x84
   - 60 x51 * x88 + 62 x51 * x89 - 38 x52 * x55 - 78 x52 * x56
   - 2 x52 * x57 + 4 x52 * x58 + 36 x52 * x59 + 78 x52 * x61 - 30 x52 * x62
   + 90 x52 * x63 + 46 x52 * x65 - 6 x52 * x66 - 36 x52 * x68
   + 50 x52 * x69 + 62 x52 * x70 + 58 x52 * x72 - 78 x52 * x73
   + 46 x52 * x76 - 76 x52 * x79 - 88 x52 * x81 - 6 x52 * x83
   + 54 x52 * x89 + 98 x53 * x54 - 4 x53 * x55 - 50 x53 * x56
   - 28 x53 * x58 + 50 x53 * x59 - 68 x53 * x61 + 80 x53 * x62
   - 70 x53 * x66 + 34 x53 * x68 - 76 x53 * x77 - 70 x53 * x80
   + 26 x53 * x81 + 16 x53 * x82 - 6 x53 * x84 + 86 x53 * x89
   - 22 x54 * x55 - 52 x54 * x57 - 68 x54 * x58 - 92 x54 * x60
   - 64 x54 * x64 + 76 x54 * x65 - 88 x54 * x66 + 60 x54 * x69
   - 44 x54 * x75 + 84 x54 * x76 + 38 x54 * x78 + 94 x54 * x80
   + 10 x54 * x81 + 22 x54 * x82 + 22 x54 * x86 - 14 x54 * x87 - 26 x55 ^2
   + 94 x55 * x57 + 30 x55 * x59 + 24 x55 * x61 + 34 x55 * x62
   - 28 x55 * x64 - 94 x55 * x65 + 66 x55 * x67 - 20 x55 * x71
   - 16 x55 * x73 - 50 x55 * x74 - 24 x55 * x76 - 88 x55 * x79
   - 16 x55 * x80 + 68 x55 * x81 - 38 x55 * x82 + 36 x55 * x85
   + 86 x55 * x87 + 44 x55 * x88 + 58 x55 * x89 + 80 x56 * x57
   - 68 x56 * x58 + 14 x56 * x61 + 22 x56 * x64 + 22 x56 * x67
   + 82 x56 * x69 - 64 x56 * x70 - 88 x56 * x72 - 16 x56 * x74
   - 82 x56 * x75 + 98 x56 * x76 - 38 x56 * x77 + 78 x56 * x78
   + 6 x56 * x80 - 80 x56 * x84 - 2 x56 * x85 - 8 x56 * x86 - 28 x56 * x87
   - 28 x57 ^2 + 54 x57 * x58 + 78 x57 * x59 + 50 x57 * x60 - 80 x57 * x61
   + 8 x57 * x63 - 18 x57 * x64 + 32 x57 * x66 + 82 x57 * x68
   + 44 x57 * x69 - 32 x57 * x70 + 64 x57 * x74 - 16 x57 * x80
   + 34 x57 * x81 + 56 x57 * x82 - 26 x57 * x85 - 92 x57 * x87
   - 68 x58 * x62 + 68 x58 * x63 - 48 x58 * x65 + 88 x58 * x66
   - 32 x58 * x69 + 6 x58 * x71 + 42 x58 * x74 + 32 x58 * x76
   + 42 x58 * x78 - 78 x58 * x79 + 22 x58 * x83 - 14 x58 * x87
   - 72 x59 * x61 - 14 x59 * x66 + 24 x59 * x68 + 6 x59 * x70
   - 28 x59 * x71 + 18 x59 * x73 - 42 x59 * x74 - 60 x59 * x77
   + 42 x59 * x80 - 22 x59 * x82 - 4 x59 * x83 + 68 x59 * x84
   + 24 x59 * x86 - 46 x59 * x87 + 33 x60 ^2 + 24 x60 * x64 - 70 x60 * x65
   - 60 x60 * x68 - 24 x60 * x69 + 30 x60 * x72 + 16 x60 * x73
   + 54 x60 * x75 + 50 x60 * x80 + 36 x60 * x81 + 98 x60 * x82
   - 16 x60 * x84 + 56 x61 * x65 - 70 x61 * x66 + 18 x61 * x70
   - 74 x61 * x73 + 16 x61 * x75 + 98 x61 * x76 - 96 x61 * x80
   - 80 x61 * x81 + 22 x61 * x82 - 72 x61 * x83 - 24 x61 * x88
   + 78 x61 * x89 - 16 x62 * x63 - 66 x62 * x65 + 18 x62 * x67
   + 16 x62 * x69 - 96 x62 * x70 - 8 x62 * x72 - 42 x62 * x73
   + 16 x62 * x76 + 14 x62 * x77 - 14 x62 * x78 + 36 x62 * x79
   - 32 x62 * x81 - 48 x62 * x82 + 92 x62 * x86 - 94 x62 * x88
   + 60 x63 * x64 - 22 x63 * x66 + 86 x63 * x67 - 90 x63 * x70
   - 44 x63 * x75 - 48 x63 * x77 - 92 x63 * x78 - 14 x63 * x81
   + 10 x63 * x82 - 66 x63 * x84 - 64 x63 * x87 + 34 x63 * x88
   + 34 x64 * x65 - 86 x64 * x66 + 84 x64 * x67 + 58 x64 * x69
   + 40 x64 * x70 - 6 x64 * x75 - 8 x64 * x79 + 98 x64 * x82 + 90 x64 * x83
   - 74 x64 * x85 - 32 x64 * x86 - 14 x64 * x89 - 44 x65 * x68
   + 12 x65 * x69 + 52 x65 * x71 + 62 x65 * x73 - 28 x65 * x74
   - 14 x65 * x76 + 56 x65 * x77 - 62 x65 * x81 - 96 x65 * x82
   + 52 x65 * x86 + 8 x65 * x87 - 50 x65 * x88 + 30 x66 * x68
   + 64 x66 * x69 + 64 x66 * x72 + 76 x66 * x73 + 34 x66 * x77
   + 42 x66 * x78 - 98 x66 * x79 - 72 x66 * x80 - 64 x66 * x82
   - 32 x66 * x83 - 4 x66 * x84 + 6 x66 * x86 + 94 x66 * x88 - 12 x67 * x69
   + 2 x67 * x73 + 22 x67 * x77 - 68 x67 * x78 - 14 x67 * x80
   + 18 x67 * x81 + 96 x67 * x84 + 58 x67 * x85 + 44 x67 * x86
   - 48 x67 * x87 - 78 x67 * x88 - 49 x68 ^2 + 70 x68 * x69 - 16 x68 * x70
   - 70 x68 * x71 - 68 x68 * x72 + 74 x68 * x74 - 16 x68 * x76
   + 20 x68 * x78 - 78 x68 * x85 + 52 x68 * x88 - 35 x69 ^2 - 38 x69 * x74
   - 28 x69 * x76 + 90 x69 * x78 - 88 x69 * x79 + 82 x69 * x84
   - 46 x69 * x87 + 50 x69 * x88 - 82 x69 * x89 + 45 x70 ^2 + 24 x70 * x71
   + 60 x70 * x72 - 84 x70 * x74 + 60 x70 * x76 + 12 x70 * x79
   + 6 x70 * x81 + 72 x70 * x83 + 54 x70 * x84 + 2 x70 * x87 - 29 x71 ^2
   - 64 x71 * x74 + 76 x71 * x78 - 30 x71 * x81 + 40 x71 * x82
   - 42 x71 * x83 + 56 x71 * x88 - 42 x71 * x89 + 38 x72 ^2 + 8 x72 * x73
   - 60 x72 * x74 - 76 x72 * x75 + 40 x72 * x78 + 70 x72 * x79
   + 74 x72 * x80 - 20 x72 * x82 + 40 x72 * x83 + 10 x72 * x86
   - 48 x72 * x88 + 86 x73 * x74 + 50 x73 * x75 + 62 x73 * x76
   + 96 x73 * x82 + 48 x73 * x84 + 44 x73 * x85 - 58 x73 * x86
   - 48 x73 * x89 + 24 x74 ^2 - 92 x74 * x75 + 10 x74 * x76 + 36 x74 * x78
   - 28 x74 * x81 + 10 x74 * x83 - 84 x74 * x84 - 12 x74 * x85
   + 60 x74 * x86 + 12 x74 * x87 - 36 x75 * x78 - 14 x75 * x79
   + 26 x75 * x89 - 68 x76 * x78 - 94 x76 * x80 - 62 x76 * x81
   + 56 x76 * x83 - 42 x76 * x85 + 64 x76 * x86 - 76 x76 * x87
   + 88 x77 * x78 - 14 x77 * x79 + 94 x77 * x89 + 34 x78 ^2 + 32 x78 * x80
   + 12 x78 * x81 + 52 x78 * x82 + 74 x78 * x84 + 26 x78 * x85
   - 34 x78 * x87 + 58 x78 * x88 + 80 x78 * x89 - 64 x79 * x81
   - 96 x79 * x82 + 6 x79 * x84 - 16 x79 * x89 + 47 x80 ^2 - 50 x80 * x82
   + 80 x80 * x83 - 46 x80 * x86 - 84 x80 * x87 - 24 x81 ^2 - 18 x81 * x82
   - 34 x81 * x83 + 64 x81 * x85 - 4 x82 * x83 - 76 x82 * x85
   - 16 x82 * x86 + 92 x82 * x88 + 44 x83 * x85 - 4 x83 * x86
   + 52 x83 * x89 + 38 x84 ^2 - 82 x84 * x85 + 34 x85 ^2 - 24 x85 * x86
   - 30 x85 * x87 + 58 x85 * x88 - 46 x86 * x87 + 50 x86 * x88
   - 18 x87 * x89 - 26 x88 ^2 + 22 x88 * x89 + 9 x89 ^2 ] / 2 
Subject To
Bounds
 x0 <= 1
 x1 <= 1
 x2 <= 1
 x3 <= 1
 x4 <= 1
 x5 <= 1
 x6 <= 1
 x7 <= 1
 x8 <= 1
 x9 <= 1
 x10 <= 1
 x11 <= 1
 x12 <= 1
 x13 <= 1
 x14 <= 1
 x15 <= 1
 x16 <= 1
 x17 <= 1
 x18 <= 1
 x19 <= 1
 x20 <= 1
 x21 <= 1
 x22 <= 1
 x23 <= 1
 x24 <= 1
 x25 <= 1
 x26 <= 1
 x27 <= 1
 x28 <= 1
 x29 <= 1
 x30 <= 1
 x31 <= 1
 x32 <= 1
 x33 <= 1
 x34 <= 1
 x35 <= 1
 x36 <= 1
 x37 <= 1
 x38 <= 1
 x39 <= 1
 x40 <= 1
 x41 <= 1
 x42 <= 1
 x43 <= 1
 x44 <= 1
 x45 <= 1
 x46 <= 1
 x47 <= 1
 x48 <= 1
 x49 <= 1
 x50 <= 1
 x51 <= 1
 x52 <= 1
 x53 <= 1
 x54 <= 1
 x55 <= 1
 x56 <= 1
 x57 <= 1
 x58 <= 1
 x59 <= 1
 x60 <= 1
 x61 <= 1
 x62 <= 1
 x63 <= 1
 x64 <= 1
 x65 <= 1
 x66 <= 1
 x67 <= 1
 x68 <= 1
 x69 <= 1
 x70 <= 1
 x71 <= 1
 x72 <= 1
 x73 <= 1
 x74 <= 1
 x75 <= 1
 x76 <= 1
 x77 <= 1
 x78 <= 1
 x79 <= 1
 x80 <= 1
 x81 <= 1
 x82 <= 1
 x83 <= 1
 x84 <= 1
 x85 <= 1
 x86 <= 1
 x87 <= 1
 x88 <= 1
 x89 <= 1
End
